c Grid graph 3x17
p edge 51 82
e 1 2
e 1 18
e 2 3
e 2 19
e 3 4
e 3 20
e 4 5
e 4 21
e 5 6
e 5 22
e 6 7
e 6 23
e 7 8
e 7 24
e 8 9
e 8 25
e 9 10
e 9 26
e 10 11
e 10 27
e 11 12
e 11 28
e 12 13
e 12 29
e 13 14
e 13 30
e 14 15
e 14 31
e 15 16
e 15 32
e 16 17
e 16 33
e 17 34
e 18 19
e 18 35
e 19 20
e 19 36
e 20 21
e 20 37
e 21 22
e 21 38
e 22 23
e 22 39
e 23 24
e 23 40
e 24 25
e 24 41
e 25 26
e 25 42
e 26 27
e 26 43
e 27 28
e 27 44
e 28 29
e 28 45
e 29 30
e 29 46
e 30 31
e 30 47
e 31 32
e 31 48
e 32 33
e 32 49
e 33 34
e 33 50
e 34 51
e 35 36
e 36 37
e 37 38
e 38 39
e 39 40
e 40 41
e 41 42
e 42 43
e 43 44
e 44 45
e 45 46
e 46 47
e 47 48
e 48 49
e 49 50
e 50 51
